c This Formular was created for testing purposes
c
c    horn? no
c    forced? no
c    mixed sat? no
c    clause length = 3
c
p cnf
1	8	10
9	3	-39
21	14	4
31	28	9
7	17	-10
20	11	16
5	-7	14
12	-10	19
18	6	49
-14	13	8
31	9	25
2	15	4
-35	-33	27
22	-40	21
47	29	-38
24	-34	45
23	-36	4
18	32	-54
-37	-10	13
30	26	23
-58	-55	10
41	-56	44
51	-60	31
-14	42	45
-59	31	43
52	4	15
-57	14	47
48	10	50
-53	23	13
46	21	9
70	-73	13
61	-75	24
68	4	-78
63	-80	15
64	10	-79
65	72	23
67	71	27
66	16	-76
62	-74	17
69	31	77
%
0
